NAME: rand_0/map9_180
TYPE: TSP
COMMENT: autogenerated using a wonderful map creator
DIMENSION: 210
EDGE_WEIGHT_TYPE: EUC_2D
NODE_COORD_SECTION
1 37.0 63.0
2 61.0 26.0
3 62.0 13.0
4 2.0 13.0
5 61.0 20.0
6 43.0 61.0
7 2.0 16.0
8 1.0 16.0
9 61.0 18.0
10 40.0 62.0
11 40.0 1.0
12 47.0 63.0
13 62.0 25.0
14 1.0 11.0
15 63.0 17.0
16 32.0 2.0
17 62.0 27.0
18 49.0 63.0
19 61.0 14.0
20 63.0 20.0
21 35.0 62.0
22 40.0 4.0
23 1.0 10.0
24 34.0 2.0
25 62.0 28.0
26 63.0 31.0
27 39.0 3.0
28 36.0 62.0
29 44.0 63.0
30 61.0 21.0
31 63.0 22.0
32 62.0 17.0
33 2.0 14.0
34 47.0 61.0
35 48.0 63.0
36 33.0 2.0
37 63.0 25.0
38 62.0 26.0
39 63.0 15.0
40 41.0 61.0
41 63.0 23.0
42 41.0 1.0
43 61.0 27.0
44 38.0 62.0
45 37.0 1.0
46 43.0 62.0
47 36.0 5.0
48 63.0 16.0
49 38.0 5.0
50 38.0 2.0
51 63.0 14.0
52 43.0 63.0
53 49.0 61.0
54 45.0 63.0
55 62.0 24.0
56 61.0 16.0
57 1.0 9.0
58 45.0 61.0
59 62.0 19.0
60 34.0 1.0
61 43.0 46.0
62 55.0 11.0
63 22.0 17.0
64 47.0 16.0
65 18.0 44.0
66 48.0 45.0
67 25.0 59.0
68 48.0 8.0
69 23.0 43.0
70 12.0 61.0
71 15.0 23.0
72 56.0 3.0
73 36.0 9.0
74 8.0 2.0
75 34.0 21.0
76 40.0 34.0
77 37.0 26.0
78 31.0 40.0
79 22.0 46.0
80 32.0 23.0
81 40.0 6.0
82 33.0 22.0
83 61.0 38.0
84 32.0 32.0
85 43.0 32.0
86 25.0 27.0
87 42.0 43.0
88 59.0 59.0
89 55.0 15.0
90 9.0 49.0
91 14.0 8.0
92 15.0 46.0
93 38.0 48.0
94 23.0 47.0
95 27.0 29.0
96 16.0 63.0
97 43.0 25.0
98 49.0 11.0
99 25.0 11.0
100 53.0 48.0
101 41.0 37.0
102 52.0 28.0
103 7.0 5.0
104 32.0 25.0
105 22.0 60.0
106 7.0 23.0
107 48.0 24.0
108 11.0 39.0
109 25.0 38.0
110 31.0 17.0
111 17.0 9.0
112 22.0 23.0
113 37.0 21.0
114 46.0 54.0
115 21.0 34.0
116 40.0 47.0
117 26.0 57.0
118 1.0 3.0
119 43.0 18.0
120 16.0 1.0
121 24.0 14.0
122 19.0 27.0
123 59.0 45.0
124 10.0 33.0
125 48.0 26.0
126 9.0 53.0
127 39.0 32.0
128 2.0 56.0
129 50.0 8.0
130 50.0 35.0
131 28.0 32.0
132 63.0 8.0
133 30.0 47.0
134 25.0 42.0
135 19.0 56.0
136 14.0 14.0
137 61.0 1.0
138 20.0 30.0
139 37.0 16.0
140 32.0 59.0
141 59.0 22.0
142 53.0 36.0
143 26.0 6.0
144 50.0 37.0
145 46.0 15.0
146 53.0 8.0
147 34.0 59.0
148 40.0 17.0
149 22.0 20.0
150 58.0 7.0
151 43.0 52.0
152 29.0 35.0
153 15.0 45.0
154 16.0 44.0
155 1.0 55.0
156 26.0 54.0
157 10.0 21.0
158 54.0 9.0
159 34.0 6.0
160 2.0 35.0
161 29.0 19.0
162 19.0 51.0
163 57.0 35.0
164 57.0 44.0
165 52.0 57.0
166 53.0 22.0
167 13.0 50.0
168 7.0 52.0
169 37.0 32.0
170 7.0 61.0
171 30.0 26.0
172 48.0 7.0
173 29.0 21.0
174 60.0 8.0
175 35.0 43.0
176 7.0 36.0
177 15.0 49.0
178 10.0 62.0
179 36.0 26.0
180 33.0 9.0
181 10.0 25.0
182 49.0 8.0
183 60.0 38.0
184 58.0 50.0
185 52.0 43.0
186 40.0 23.0
187 55.0 5.0
188 58.0 4.0
189 57.0 39.0
190 44.0 48.0
191 36.0 10.0
192 16.0 41.0
193 1.0 52.0
194 47.0 19.0
195 18.0 47.0
196 22.0 29.0
197 27.0 25.0
198 16.0 4.0
199 22.0 38.0
200 14.0 34.0
201 28.0 33.0
202 47.0 46.0
203 48.0 11.0
204 17.0 42.0
205 41.0 27.0
206 58.0 43.0
207 26.0 8.0
208 51.0 46.0
209 26.0 26.0
210 40.0 25.0
211 55.0 7.0
212 59.0 5.0
213 55.0 25.0
214 1.0 54.0
215 35.0 56.0
216 37.0 20.0
217 39.0 47.0
218 34.0 42.0
219 9.0 22.0
220 63.0 57.0
221 20.0 52.0
222 23.0 39.0
223 12.0 39.0
224 48.0 13.0
225 12.0 48.0
226 22.0 58.0
227 21.0 60.0
228 33.0 25.0
229 15.0 19.0
230 60.0 51.0
231 18.0 15.0
232 24.0 31.0
233 14.0 63.0
234 56.0 8.0
235 26.0 37.0
236 27.0 11.0
237 11.0 12.0
238 57.0 9.0
239 23.0 41.0
240 13.0 15.0
START_DEPOT_SECTION
1
2
3
4
5
6
7
8
9
10
11
12
13
14
15
16
17
18
19
20
21
22
23
24
25
26
27
28
29
30
-1
END_DEPOT_SECTION
31
32
33
34
35
36
37
38
39
40
41
42
43
44
45
46
47
48
49
50
51
52
53
54
55
56
57
58
59
60
-1
EOF
